30318,3
30310,4
28312,3
28879
28919,8
29122,3
29576,1
29769,9
32648,3
32558,6
32909,7
32979,4
29045,3
29224,3
29312
29580,6
29955,8
29964,7
30152,2
29774
29961,3
30025,8
27364,3
27238,5
27199
27052,5
27420,2
27910,5
27962,1
28077,5
28165,7
31109,2
30582
30355,8
30361,4
